# Solution for model GasLib-40
# Objective value = 10.4080615762487
loadshed[innode_1] 0
loadshed[innode_2] 0
loadshed[innode_3] 0
loadshed[innode_4] 0
loadshed[innode_5] 0
loadshed[innode_6] 0
loadshed[innode_7] 0
loadshed[innode_8] 0
loadshed[source_1] -2.3903644314381056e-01
loadshed[source_2] -6.6562435189316371e-02
loadshed[source_3] 3.7143506840468044e-01
loadshed[sink_1] 0
loadshed[sink_2] 0
loadshed[sink_3] 0
loadshed[sink_4] 0
loadshed[sink_5] 0
loadshed[sink_6] 0
loadshed[sink_7] 0
loadshed[sink_8] 0
loadshed[sink_9] 0
loadshed[sink_10] 0
loadshed[sink_11] 0
loadshed[sink_12] 6.3641650402539818e-01
loadshed[sink_13] 0
loadshed[sink_14] 0
loadshed[sink_15] 0
loadshed[sink_16] 0
loadshed[sink_17] 0
loadshed[sink_18] 0
loadshed[sink_19] 0
loadshed[sink_20] 0
loadshed[sink_21] 0
loadshed[sink_22] 0
loadshed[sink_23] 0
loadshed[sink_24] 0
loadshed[sink_25] 0
loadshed[sink_26] 0
loadshed[sink_27] 0
loadshed[sink_28] 0
loadshed[sink_29] 0
flow[source_1,sink_3] 1.9587961547339478e+02
flow[innode_1,sink_16] 1.6354166666666970e+01
flow[innode_6,sink_13] 1.5109162029392813e+01
flow[sink_13,sink_14] -1.2450046372738548e+00
flow[sink_14,sink_10] -1.7599171303940523e+01
flow[sink_25,sink_26] 1.7384012935544365e+02
flow[sink_26,sink_9] 1.2292309400374458e+02
flow[sink_9,sink_18] 1.0656892733707791e+02
flow[sink_26,sink_4] 3.4562868685032470e+01
flow[sink_4,sink_20] -2.8355975734974550e+01
flow[sink_18,sink_6] 9.0214760670411238e+01
flow[sink_25,innode_8] -1.6317128214005839e+02
flow[sink_6,sink_7] 4.1152260670410669e+01
flow[sink_6,sink_22] 3.2708333333333641e+01
flow[sink_7,sink_24] 3.8654438423751309e+01
flow[sink_22,sink_1] 1.6354166666666970e+01
flow[sink_24,sink_21] 2.2300271757084637e+01
flow[sink_21,sink_12] 5.9461050904179693e+00
flow[sink_7,sink_5] -1.3856344420007005e+01
flow[sink_5,sink_17] -3.0210511086673591e+01
flow[sink_17,sink_4] -4.6564677753340263e+01
flow[sink_17,sink_8] 0
flow[sink_3,sink_23] 16.3541666666697
flow[sink_8,sink_20] -1.6354166666668334e+01
flow[sink_25,sink_20] 61.0643090683096
flow[sink_25,sink_15] -1.0319648497975436e+02
flow[sink_15,sink_29] -6.6207345952765991e+01
flow[sink_29,sink_28] 1.6354166666667879e+01
flow[sink_29,sink_2] 6.9697472360321626e+01
flow[sink_2,sink_15] 5.3343305693654884e+01
flow[sink_29,innode_7] -1.6861315164642212e+02
flow[innode_4,sink_19] 0
flow[sink_19,innode_3] 0
flow[innode_4,innode_5] 9.9370004637273951e+01
flow[sink_27,innode_5] -9.9370004637273951e+01
flow[sink_27,sink_19] 8.3015837970607365e+01
flow[sink_10,sink_11] 3.2708333333333641e+01
flow[sink_10,innode_2] -66.6616713039407
flow[sink_10,innode_3] 0
flow[innode_6,sink_25] -1.5109162029392813e+01
flow[sink_11,innode_1] 1.6354166666666970e+01
flow[sink_19,innode_2] 66.6616713039407
flow[source_3,innode_4] 9.9370004637273951e+01
flow[source_2,innode_7] 1.6861315164642212e+02
flow[sink_3,innode_8] 1.6317128214005839e+02
pressure[innode_1] 7.4662883995814624e+01
pressure[innode_2] 7.8337929953551040e+01
pressure[innode_3] 7.8337929953551040e+01
pressure[innode_4] 81.01325
pressure[innode_5] 8.0944898071013910e+01
pressure[innode_6] 7.4063235455990920e+01
pressure[innode_7] 81.01325
pressure[innode_8] 80.3584992741978
pressure[source_1] 81.01325
pressure[source_2] 81.01325
pressure[source_3] 81.01325
pressure[sink_1] 4.6096451058222762e+01
pressure[sink_2] 74.7379931014655
pressure[sink_3] 80.3584992741978
pressure[sink_4] 5.7425364658820968e+01
pressure[sink_5] 5.3395351509255953e+01
pressure[sink_6] 4.8197528668610133e+01
pressure[sink_7] 4.7632606221748460e+01
pressure[sink_8] 5.8366035463241666e+01
pressure[sink_9] 5.4462512804236951e+01
pressure[sink_10] 7.4814585303418170e+01
pressure[sink_11] 7.4662883995814624e+01
pressure[sink_12] 1.0132499999999998e+00
pressure[sink_13] 7.3979941170698424e+01
pressure[sink_14] 7.3982169212547774e+01
pressure[sink_15] 7.4563838965050920e+01
pressure[sink_16] 7.3641234160996945e+01
pressure[sink_17] 5.5645816217366992e+01
pressure[sink_18] 5.0606531383151761e+01
pressure[sink_19] 7.8337929953551040e+01
pressure[sink_20] 5.9505690886829953e+01
pressure[sink_21] 3.1291996227699386e+00
pressure[sink_22] 4.7160220200577768e+01
pressure[sink_23] 8.0193781262538010e+01
pressure[sink_24] 3.3761544130561418e+00
pressure[sink_25] 7.4063235455990920e+01
pressure[sink_26] 6.1819777236133476e+01
pressure[sink_27] 8.0120310648549975e+01
pressure[sink_28] 7.6208226461103692e+01
pressure[sink_29] 7.6503508734720867e+01
interdiction[source_1,sink_3] 0
interdiction[innode_1,sink_16] 0
interdiction[innode_6,sink_13] 0
interdiction[sink_13,sink_14] 0
interdiction[sink_14,sink_10] 0
interdiction[sink_25,sink_26] 0
interdiction[sink_26,sink_9] 0
interdiction[sink_9,sink_18] 0
interdiction[sink_26,sink_4] 0
interdiction[sink_4,sink_20] 0
interdiction[sink_18,sink_6] 0
interdiction[sink_25,innode_8] 0
interdiction[sink_6,sink_7] 0
interdiction[sink_6,sink_22] 0
interdiction[sink_7,sink_24] 0
interdiction[sink_22,sink_1] 0
interdiction[sink_24,sink_21] 0
interdiction[sink_21,sink_12] 0
interdiction[sink_7,sink_5] 0
interdiction[sink_5,sink_17] 0
interdiction[sink_17,sink_4] 0
interdiction[sink_17,sink_8] 1
interdiction[sink_3,sink_23] 0
interdiction[sink_8,sink_20] 0
interdiction[sink_25,sink_20] 0
interdiction[sink_25,sink_15] 0
interdiction[sink_15,sink_29] 0
interdiction[sink_29,sink_28] 0
interdiction[sink_29,sink_2] 0
interdiction[sink_2,sink_15] 0
interdiction[sink_29,innode_7] 0
interdiction[innode_4,sink_19] 1
interdiction[sink_19,innode_3] 0
interdiction[innode_4,innode_5] 0
interdiction[sink_27,innode_5] 0
interdiction[sink_27,sink_19] 0
interdiction[sink_10,sink_11] 0
interdiction[sink_10,innode_2] 0
interdiction[sink_10,innode_3] 1
interdiction[innode_6,sink_25] 0
interdiction[sink_11,innode_1] 0
interdiction[sink_19,innode_2] 0
interdiction[source_3,innode_4] 0
interdiction[source_2,innode_7] 0
interdiction[sink_3,innode_8] 0
WCcheckFlow[source_1,sink_3] 39
WCcheckFlow[innode_1,sink_16] 1
WCcheckFlow[innode_6,sink_13] 13
WCcheckFlow[sink_13,sink_14] 12
WCcheckFlow[sink_14,sink_10] 11
WCcheckFlow[sink_25,sink_26] 15
WCcheckFlow[sink_26,sink_9] 11
WCcheckFlow[sink_9,sink_18] 10
WCcheckFlow[sink_26,sink_4] 3
WCcheckFlow[sink_4,sink_20] 2
WCcheckFlow[sink_18,sink_6] 9
WCcheckFlow[sink_25,innode_8] -36
WCcheckFlow[sink_6,sink_7] 6
WCcheckFlow[sink_6,sink_22] 2
WCcheckFlow[sink_7,sink_24] 3
WCcheckFlow[sink_22,sink_1] 1
WCcheckFlow[sink_24,sink_21] 2
WCcheckFlow[sink_21,sink_12] 1
WCcheckFlow[sink_7,sink_5] 2
WCcheckFlow[sink_5,sink_17] 1
WCcheckFlow[sink_17,sink_4] 0
WCcheckFlow[sink_17,sink_8] 0
WCcheckFlow[sink_3,sink_23] 1
WCcheckFlow[sink_8,sink_20] -1
WCcheckFlow[sink_25,sink_20] 0
WCcheckFlow[sink_25,sink_15] 6
WCcheckFlow[sink_15,sink_29] 5
WCcheckFlow[sink_29,sink_28] 1
WCcheckFlow[sink_29,sink_2] 1
WCcheckFlow[sink_2,sink_15] 0
WCcheckFlow[sink_29,innode_7] 2
WCcheckFlow[innode_4,sink_19] 0
WCcheckFlow[sink_19,innode_3] 1
WCcheckFlow[innode_4,innode_5] -2
WCcheckFlow[sink_27,innode_5] 3
WCcheckFlow[sink_27,sink_19] -4
WCcheckFlow[sink_10,sink_11] 3
WCcheckFlow[sink_10,innode_2] 7
WCcheckFlow[sink_10,innode_3] 0
WCcheckFlow[innode_6,sink_25] -14
WCcheckFlow[sink_11,innode_1] 2
WCcheckFlow[sink_19,innode_2] -6
WCcheckFlow[source_3,innode_4] -1
WCcheckFlow[source_2,innode_7] -1
WCcheckFlow[sink_3,innode_8] 37
